generated_poscar                        
   1.00000000000000     
     3.6320546012200001    0.0000000000000000    0.0000000000000000
     0.0000000000000000    4.8320023849100000    0.0000000000000000
     0.0000000000000000    0.0000000000000000    6.8717858552299997
   Si   Ni
     4     8
Selective dynamics
Direct
  0.2500000000000000  0.7897570571919985  0.8862775771600013   T   T   T
  0.7500000000000000  0.2102429428080015  0.1137224228399987   T   T   T
  0.2500000000000000  0.2897570571919985  0.6137224228399987   T   T   T
  0.7500000000000000  0.7102429428080015  0.3862775771600013   T   T   T
  0.2500000000000000  0.9586818314299990  0.2062892250970023   T   T   T
  0.7500000000000000  0.0413181685698021  0.7937107749029977   T   T   T
  0.2500000000000000  0.4586818314299990  0.2937107749029977   T   T   T
  0.7500000000000000  0.5413181685700010  0.7062892250970023   T   T   T
  0.2500000000000000  0.8284842158819998  0.5603429043739965   T   T   T
  0.7500000000000000  0.1715157841180002  0.4396570956260035   T   T   T
  0.2500000000000000  0.3284842158819998  0.9396570956260035   T   T   T
  0.7500000000000000  0.6715157841180002  0.0603429043742025   T   T   T
 
  0.00000000E+00  0.00000000E+00  0.00000000E+00
  0.00000000E+00  0.00000000E+00  0.00000000E+00
  0.00000000E+00  0.00000000E+00  0.00000000E+00
  0.00000000E+00  0.00000000E+00  0.00000000E+00
  0.00000000E+00  0.00000000E+00  0.00000000E+00
  0.00000000E+00  0.00000000E+00  0.00000000E+00
  0.00000000E+00  0.00000000E+00  0.00000000E+00
  0.00000000E+00  0.00000000E+00  0.00000000E+00
  0.00000000E+00  0.00000000E+00  0.00000000E+00
  0.00000000E+00  0.00000000E+00  0.00000000E+00
  0.00000000E+00  0.00000000E+00  0.00000000E+00
  0.00000000E+00  0.00000000E+00  0.00000000E+00
