make supercell ['Ni']                   
   1.00000000000000     
     6.8637224149074001    0.0000000000000000    0.0000000000000000
     0.0000000000000000    6.8637224149074001    0.0000000000000000
     0.0000000000000000    0.0000000000000000    6.8637224149074001
   Ni
    32
Selective dynamics
Direct
  0.0000000000000000  0.0000000000000000  0.0000000000000000   T   T   T
  0.0000000000000000  0.0000000000000000  0.5000000000000000   T   T   T
  0.0000000000000000  0.5000000000000000  0.0000000000000000   T   T   T
  0.0000000000000000  0.5000000000000000  0.5000000000000000   T   T   T
  0.5000000000000000  0.0000000000000000  0.0000000000000000   T   T   T
  0.5000000000000000  0.0000000000000000  0.5000000000000000   T   T   T
  0.5000000000000000  0.5000000000000000  0.0000000000000000   T   T   T
  0.5000000000000000  0.5000000000000000  0.5000000000000000   F   F   F
  0.0000000000000000  0.2500000000000000  0.2500000000000000   T   T   T
  0.0000000000000000  0.2500000000000000  0.7500000000000000   T   T   T
  0.0000000000000000  0.7500000000000000  0.2500000000000000   T   T   T
  0.0000000000000000  0.7500000000000000  0.7500000000000000   T   T   T
  0.5000000000000000  0.2500000000000000  0.2500000000000000   T   T   T
  0.5000000000000000  0.2500000000000000  0.7500000000000000   T   T   T
  0.5000000000000000  0.7500000000000000  0.2500000000000000   T   T   T
  0.5000000000000000  0.7500000000000000  0.7500000000000000   T   T   T
  0.2500000000000000  0.0000000000000000  0.2500000000000000   T   T   T
  0.2500000000000000  0.0000000000000000  0.7500000000000000   T   T   T
  0.2500000000000000  0.5000000000000000  0.2500000000000000   T   T   T
  0.2500000000000000  0.5000000000000000  0.7500000000000000   T   T   T
  0.7500000000000000  0.0000000000000000  0.2500000000000000   T   T   T
  0.7500000000000000  0.0000000000000000  0.7500000000000000   T   T   T
  0.7500000000000000  0.5000000000000000  0.2500000000000000   T   T   T
  0.7500000000000000  0.5000000000000000  0.7500000000000000   T   T   T
  0.2500000000000000  0.2500000000000000  0.0000000000000000   T   T   T
  0.2500000000000000  0.2500000000000000  0.5000000000000000   T   T   T
  0.2500000000000000  0.7500000000000000  0.0000000000000000   T   T   T
  0.2500000000000000  0.7500000000000000  0.5000000000000000   T   T   T
  0.7500000000000000  0.2500000000000000  0.0000000000000000   T   T   T
  0.7500000000000000  0.2500000000000000  0.5000000000000000   T   T   T
  0.7500000000000000  0.7500000000000000  0.0000000000000000   T   T   T
  0.7500000000000000  0.7500000000000000  0.5000000000000000   T   T   T
 
  0.00000000E+00  0.00000000E+00  0.00000000E+00
  0.00000000E+00  0.00000000E+00  0.00000000E+00
  0.00000000E+00  0.00000000E+00  0.00000000E+00
  0.00000000E+00  0.00000000E+00  0.00000000E+00
  0.00000000E+00  0.00000000E+00  0.00000000E+00
  0.00000000E+00  0.00000000E+00  0.00000000E+00
  0.00000000E+00  0.00000000E+00  0.00000000E+00
  0.00000000E+00  0.00000000E+00  0.00000000E+00
  0.00000000E+00  0.00000000E+00  0.00000000E+00
  0.00000000E+00  0.00000000E+00  0.00000000E+00
  0.00000000E+00  0.00000000E+00  0.00000000E+00
  0.00000000E+00  0.00000000E+00  0.00000000E+00
  0.00000000E+00  0.00000000E+00  0.00000000E+00
  0.00000000E+00  0.00000000E+00  0.00000000E+00
  0.00000000E+00  0.00000000E+00  0.00000000E+00
  0.00000000E+00  0.00000000E+00  0.00000000E+00
  0.00000000E+00  0.00000000E+00  0.00000000E+00
  0.00000000E+00  0.00000000E+00  0.00000000E+00
  0.00000000E+00  0.00000000E+00  0.00000000E+00
  0.00000000E+00  0.00000000E+00  0.00000000E+00
  0.00000000E+00  0.00000000E+00  0.00000000E+00
  0.00000000E+00  0.00000000E+00  0.00000000E+00
  0.00000000E+00  0.00000000E+00  0.00000000E+00
  0.00000000E+00  0.00000000E+00  0.00000000E+00
  0.00000000E+00  0.00000000E+00  0.00000000E+00
  0.00000000E+00  0.00000000E+00  0.00000000E+00
  0.00000000E+00  0.00000000E+00  0.00000000E+00
  0.00000000E+00  0.00000000E+00  0.00000000E+00
  0.00000000E+00  0.00000000E+00  0.00000000E+00
  0.00000000E+00  0.00000000E+00  0.00000000E+00
  0.00000000E+00  0.00000000E+00  0.00000000E+00
  0.00000000E+00  0.00000000E+00  0.00000000E+00
